\ENCODING=ISO-8859-1
\Problem name: ilog.cplex

Minimize
 obj1: 93345 x1 + 107121 x2 + 91159 x3 + 94186 x4 + 108420 x5 + 93857 x6
       + 96034 x7 + 105042 x8 + 100853 x9 + 104295 x10 + 108383 x11 + 98062 x12
       + 102128 x13 + 105106 x14 + 103876 x15 + 95948 x16 + 108030 x17
       + 102808 x18 + 93303 x19 + 94988 x20 + 92864 x21 + 99112 x22 + 91073 x23
       + 107312 x24 + 92977 x25 + 108190 x26 + 109215 x27 + 102007 x28
       + 91126 x29 + 92502 x30 + 91793 x31 + 100489 x32 + 91386 x33
       + 109028 x34 + 108117 x35 + 94539 x36 + 108066 x37 + 93505 x38
       + 92201 x39 + 99012 x40 + 101475 x41 + 106755 x42 + 90638 x43
       + 105473 x44 + 98436 x45 + 104181 x46 + 101378 x47 + 107870 x48
       + 96051 x49 + 107223 x50 + 91872 x51 + 106849 x52 + 103514 x53
       + 93860 x54 + 96614 x55 + 105426 x56 + 108661 x57 + 104146 x58
       + 91313 x59 + 105462 x60 + 101780 x61 + 105771 x62 + 109481 x63
       + 90091 x64 + 108698 x65 + 93555 x66 + 108551 x67 + 98512 x68
       + 102426 x69 + 101945 x70 + 90841 x71 + 103728 x72 + 101960 x73
       + 103814 x74 + 92880 x75 + 98797 x76 + 101015 x77 + 99956 x78
       + 100999 x79 + 103594 x80 + 103985 x81 + 106343 x82 + 91389 x83
       + 104861 x84 + 90065 x85 + 102802 x86 + 109583 x87 + 105290 x88
       + 91393 x89 + 99977 x90 + 103834 x91 + 106863 x92 + 103430 x93
       + 109564 x94 + 92013 x95 + 107135 x96 + 108795 x97 + 106615 x98
       + 107479 x99 + 106223 x100 + 109377 x101 + 92070 x102 + 95787 x103
       + 106992 x104 + 105787 x105 + 98699 x106 + 101135 x107 + 101232 x108
       + 98080 x109 + 94312 x110 + 109171 x111 + 90601 x112 + 107156 x113
       + 102305 x114 + 101023 x115 + 92675 x116 + 92373 x117 + 101575 x118
       + 102389 x119 + 109657 x120 + 90149 x121 + 95578 x122 + 91220 x123
       + 96371 x124 + 92802 x125 + 107508 x126 + 104972 x127 + 95074 x128
       + 104796 x129 + 95249 x130 + 102089 x131 + 99159 x132 + 97765 x133
       + 90453 x134 + 94726 x135 + 103695 x136 + 99140 x137 + 106648 x138
       + 104475 x139 + 95036 x140 + 97830 x141 + 109867 x142 + 94067 x143
       + 93244 x144 + 109742 x145 + 104791 x146 + 97612 x147 + 96455 x148
       + 100851 x149 + 95074 x150 + 91550 x151 + 99442 x152 + 103370 x153
       + 98885 x154 + 106635 x155 + 93856 x156 + 104004 x157 + 93704 x158
       + 95024 x159 + 93374 x160 + 92389 x161 + 107987 x162 + 95979 x163
       + 103440 x164 + 92490 x165 + 91594 x166 + 108655 x167 + 92337 x168
       + 100078 x169 + 101714 x170 + 101145 x171 + 97980 x172 + 95385 x173
       + 96512 x174 + 101181 x175 + 103141 x176 + 91564 x177 + 94835 x178
       + 105806 x179 + 90750 x180 + 90431 x181 + 91096 x182 + 109558 x183
       + 96199 x184 + 107652 x185 + 105877 x186 + 93089 x187 + 109523 x188
       + 107633 x189 + 91345 x190 + 104365 x191 + 109752 x192 + 107609 x193
       + 92829 x194 + 98870 x195 + 101296 x196 + 93073 x197 + 105439 x198
       + 93201 x199 + 99913 x200 + 96315 x201 + 105901 x202 + 105516 x203
       + 100263 x204 + 98869 x205 + 97445 x206 + 103855 x207 + 104114 x208
       + 103408 x209 + 105778 x210 + 93805 x211 + 96701 x212 + 105164 x213
       + 91979 x214 + 109364 x215 + 106842 x216 + 98156 x217 + 101646 x218
       + 93845 x219 + 90243 x220 + 97275 x221 + 108675 x222 + 91257 x223
       + 94756 x224 + 103725 x225 + 96781 x226 + 92866 x227 + 101435 x228
       + 108354 x229 + 92192 x230 + 98478 x231 + 105814 x232 + 95109 x233
       + 96906 x234 + 97482 x235 + 90167 x236 + 95111 x237 + 93479 x238
       + 90816 x239 + 99354 x240 + 90399 x241 + 99203 x242 + 102989 x243
       + 100658 x244 + 99092 x245 + 93314 x246 + 107485 x247 + 97281 x248
       + 95661 x249 + 91852 x250 + 101553 x251 + 91907 x252 + 105979 x253
       + 98507 x254 + 94790 x255 + 106984 x256 + 94760 x257 + 104281 x258
       + 99618 x259 + 99885 x260 + 102876 x261 + 99019 x262 + 98186 x263
       + 108335 x264 + 102163 x265 + 91527 x266 + 100540 x267 + 101058 x268
       + 98006 x269 + 91656 x270 + 92390 x271 + 97945 x272 + 92498 x273
       + 102237 x274 + 108653 x275 + 106393 x276 + 99118 x277 + 103950 x278
       + 92381 x279 + 93475 x280 + 93635 x281 + 92001 x282 + 107801 x283
       + 97195 x284 + 95346 x285 + 99918 x286 + 90864 x287 + 94335 x288
       + 97788 x289 + 102809 x290 + 101050 x291 + 107248 x292 + 108675 x293
       + 90120 x294 + 104148 x295 + 107466 x296 + 95111 x297 + 96219 x298
       + 107269 x299 + 100072 x300 + 109543 x301 + 99212 x302 + 92791 x303
       + 95294 x304 + 95146 x305 + 95787 x306 + 104100 x307 + 102999 x308
       + 101917 x309 + 99070 x310 + 95399 x311 + 101376 x312 + 101914 x313
       + 90021 x314 + 108748 x315 + 108681 x316 + 99638 x317 + 96789 x318
       + 98957 x319 + 100612 x320 + 105399 x321 + 93881 x322 + 90740 x323
       + 101180 x324 + 100877 x325 + 95636 x326 + 94180 x327 + 108063 x328
       + 92264 x329 + 109590 x330 + 99653 x331 + 91078 x332 + 108076 x333
       + 107846 x334 + 97929 x335 + 90271 x336 + 91135 x337 + 102709 x338
       + 96342 x339 + 93546 x340 + 97155 x341 + 96606 x342 + 107723 x343
       + 92862 x344 + 106029 x345 + 95710 x346 + 95193 x347 + 102710 x348
       + 96112 x349 + 91709 x350 + 103010 x351 + 94954 x352 + 106696 x353
       + 106809 x354 + 91291 x355 + 100021 x356 + 99325 x357 + 103307 x358
       + 100760 x359 + 106062 x360 + 94872 x361 + 108911 x362 + 103224 x363
       + 97961 x364 + 106212 x365 + 109240 x366 + 105294 x367 + 102131 x368
       + 100631 x369 + 99443 x370 + 108284 x371 + 98605 x372 + 94953 x373
       + 100955 x374 + 104957 x375 + 100437 x376 + 94319 x377 + 107370 x378
       + 105105 x379 + 107733 x380 + 99994 x381 + 108546 x382 + 102974 x383
       + 103103 x384 + 93117 x385 + 91466 x386 + 100809 x387 + 100114 x388
       + 101141 x389 + 96021 x390 + 109409 x391 + 93713 x392 + 105921 x393
       + 95632 x394 + 109112 x395 + 96154 x396 + 90258 x397 + 95021 x398
       + 92799 x399 + 97128 x400 + 103129 x401 + 90377 x402 + 106227 x403
       + 102592 x404 + 92948 x405 + 100826 x406 + 90452 x407 + 103238 x408
       + 92890 x409 + 94316 x410 + 96059 x411 + 100571 x412 + 102655 x413
       + 95917 x414 + 99637 x415 + 96251 x416 + 96990 x417 + 102003 x418
       + 109122 x419 + 108666 x420 + 99598 x421 + 104593 x422 + 109436 x423
       + 104645 x424 + 93437 x425 + 98297 x426 + 109738 x427 + 95377 x428
       + 91533 x429 + 107047 x430 + 93549 x431 + 90315 x432 + 105098 x433
       + 100233 x434 + 98757 x435 + 103322 x436 + 91507 x437 + 101934 x438
       + 107037 x439 + 99114 x440 + 100862 x441 + 97601 x442 + 108864 x443
       + 95360 x444 + 102394 x445 + 99596 x446 + 94825 x447 + 107693 x448
       + 103562 x449 + 108616 x450 + 94192 x451 + 93863 x452 + 98638 x453
       + 90318 x454 + 103524 x455 + 105751 x456 + 108108 x457 + 94207 x458
       + 100370 x459 + 106135 x460 + 95417 x461 + 95384 x462 + 100184 x463
       + 90860 x464 + 93366 x465 + 98773 x466 + 108124 x467 + 96442 x468
       + 98890 x469 + 90199 x470 + 101698 x471 + 108193 x472 + 102040 x473
       + 108981 x474 + 95048 x475 + 94553 x476 + 102600 x477 + 92693 x478
       + 101156 x479 + 99617 x480 + 107738 x481 + 100127 x482 + 95196 x483
       + 102499 x484 + 91581 x485 + 100538 x486 + 94089 x487 + 94638 x488
       + 108176 x489 + 109057 x490 + 102997 x491 + 99791 x492 + 96280 x493
       + 92420 x494 + 104600 x495 + 108825 x496 + 92728 x497 + 106350 x498
       + 107791 x499 + 102440 x500 + 105529 x501 + 98844 x502 + 97159 x503
       + 107252 x504 + 97027 x505 + 100183 x506 + 109203 x507 + 92698 x508
       + 101808 x509 + 90333 x510 + 102674 x511 + 92576 x512 + 90841 x513
       + 108343 x514 + 102612 x515 + 106760 x516 + 95930 x517 + 102884 x518
       + 95508 x519 + 101017 x520 + 106656 x521 + 98262 x522 + 96463 x523
       + 95800 x524 + 105779 x525 + 106029 x526 + 98299 x527 + 98554 x528
       + 98443 x529 + 108751 x530 + 107281 x531 + 108268 x532 + 95585 x533
       + 99524 x534 + 90459 x535 + 105903 x536 + 92545 x537 + 98533 x538
       + 105573 x539 + 99776 x540 + 101139 x541 + 97656 x542 + 91630 x543
       + 90851 x544 + 101896 x545 + 103665 x546 + 93792 x547 + 91731 x548
       + 93766 x549 + 105832 x550 + 94709 x551 + 98942 x552 + 106215 x553
       + 107020 x554 + 102657 x555 + 100498 x556 + 109069 x557 + 101494 x558
       + 106438 x559 + 109819 x560 + 104952 x561 + 103990 x562 + 103047 x563
       + 101903 x564 + 106590 x565 + 100370 x566 + 103949 x567 + 109142 x568
       + 94479 x569 + 109807 x570 + 108432 x571 + 94464 x572 + 101532 x573
       + 105338 x574 + 96481 x575 + 101711 x576 + 93079 x577 + 92151 x578
       + 98104 x579 + 90966 x580 + 102936 x581 + 91112 x582 + 101277 x583
       + 100039 x584 + 109252 x585 + 98801 x586 + 106424 x587 + 92357 x588
       + 107463 x589 + 94734 x590 + 101818 x591 + 96252 x592 + 101916 x593
       + 101452 x594 + 101309 x595 + 90944 x596 + 92587 x597 + 93820 x598
       + 93469 x599 + 161582 x600 + 39148 x601 + 40269 x602 + 38082 x603
       + 41388 x604 + 42770 x605 + 42961 x606 + 41500 x607 + 40699 x608
       + 40018 x609 + 38719 x610 + 42395 x611 + 41157 x612 + 42500 x613
       + 42632 x614 + 36295 x615 + 39439 x616 + 40348 x617 + 42862 x618
       + 36498 x619 + 39030 x620 + 39646 x621 + 36394 x622 + 38655 x623
       + 37475 x624 + 43261 x625 + 37049 x626 + 42939 x627 + 38405 x628
       + 39478 x629 + 40428 x630 + 40628 x631 + 39905 x632 + 40916 x633
       + 43967 x634 + 37421 x635 + 40685 x636 + 43026 x637 + 40519 x638
       + 43943 x639 + 42152 x640 + 39031 x641 + 38920 x642 + 42900 x643
       + 39842 x644 + 40489 x645 + 38717 x646 + 41991 x647 + 43826 x648
       + 41755 x649 + 42769 x650 + 42164 x651 + 36589 x652 + 40392 x653
       + 38691 x654 + 43970 x655 + 36477 x656 + 40205 x657 + 42095 x658
       + 40745 x659 + 12830 x660
Subject To
 c1:   - x1 + x2 + x4 + x9 - x10 - x12 + x16 + x21 - x24 + x32 - x35 - x37  = 0
 c2:   - x61 + x62 + x64 + x69 - x70 - x72 + x76 + x81 - x84 + x92 - x95 - x97
        = 0
 c3:   - x121 + x122 + x124 + x129 - x130 - x132 + x136 + x141 - x144 + x152
       - x155 - x157  = 0
 c4:   - x181 + x182 + x184 + x189 - x190 - x192 + x196 + x201 - x204 + x212
       - x215 - x217  = 0
 c5:   - x241 + x242 + x244 + x249 - x250 - x252 + x256 + x261 - x264 + x272
       - x275 - x277  = 0
 c6:   - x301 + x302 + x304 + x309 - x310 - x312 + x316 + x321 - x324 + x332
       - x335 - x337  = 0
 c7:   - x361 + x362 + x364 + x369 - x370 - x372 + x376 + x381 - x384 + x392
       - x395 - x397  = 0
 c8:   - x421 + x422 + x424 + x429 - x430 - x432 + x436 + x441 - x444 + x452
       - x455 - x457  = 0
 c9:   - x481 + x482 + x484 + x489 - x490 - x492 + x496 + x501 - x504 + x512
       - x515 - x517  = 0
 c10:  - x541 + x542 + x544 + x549 - x550 - x552 + x556 + x561 - x564 + x572
       - x575 - x577  = 0
 c11:  - x9 + x11 - x20 + x26 + x28 - x44 - x45 + x46 + x48 - x54  = 1
 c12:  - x69 + x71 - x80 + x86 + x88 - x104 - x105 + x106 + x108 - x114  = 0
 c13:  - x129 + x131 - x140 + x146 + x148 - x164 - x165 + x166 + x168 - x174
        = 0
 c14:  - x189 + x191 - x200 + x206 + x208 - x224 - x225 + x226 + x228 - x234
        = 0
 c15:  - x249 + x251 - x260 + x266 + x268 - x284 - x285 + x286 + x288 - x294
        = 0
 c16:  - x309 + x311 - x320 + x326 + x328 - x344 - x345 + x346 + x348 - x354
        = 0
 c17:  - x369 + x371 - x380 + x386 + x388 - x404 - x405 + x406 + x408 - x414
        = 0
 c18:  - x429 + x431 - x440 + x446 + x448 - x464 - x465 + x466 + x468 - x474
        = 0
 c19:  - x489 + x491 - x500 + x506 + x508 - x524 - x525 + x526 + x528 - x534
        = 0
 c20:  - x549 + x551 - x560 + x566 + x568 - x584 - x585 + x586 + x588 - x594
        = 0
 c21:  - x2 - x3 - x13 - x18 - x26 + x27 + x30 - x39 + x49 + x50 - x52 + x54
       - x58 - x60  = 0
 c22:  - x62 - x63 - x73 - x78 - x86 + x87 + x90 - x99 + x109 + x110 - x112
       + x114 - x118 - x120  = 0
 c23:  - x122 - x123 - x133 - x138 - x146 + x147 + x150 - x159 + x169 + x170
       - x172 + x174 - x178 - x180  = 0
 c24:  - x182 - x183 - x193 - x198 - x206 + x207 + x210 - x219 + x229 + x230
       - x232 + x234 - x238 - x240  = -1
 c25:  - x242 - x243 - x253 - x258 - x266 + x267 + x270 - x279 + x289 + x290
       - x292 + x294 - x298 - x300  = 0
 c26:  - x302 - x303 - x313 - x318 - x326 + x327 + x330 - x339 + x349 + x350
       - x352 + x354 - x358 - x360  = 0
 c27:  - x362 - x363 - x373 - x378 - x386 + x387 + x390 - x399 + x409 + x410
       - x412 + x414 - x418 - x420  = 0
 c28:  - x422 - x423 - x433 - x438 - x446 + x447 + x450 - x459 + x469 + x470
       - x472 + x474 - x478 - x480  = 0
 c29:  - x482 - x483 - x493 - x498 - x506 + x507 + x510 - x519 + x529 + x530
       - x532 + x534 - x538 - x540  = 0
 c30:  - x542 - x543 - x553 - x558 - x566 + x567 + x570 - x579 + x589 + x590
       - x592 + x594 - x598 - x600  = 0
 c31:  - x6 - x11 + x12 - x16 - x17 + x20 + x41 + x43 - x49 + x51 - x53 - x56
       - x57 + x58  = 0
 c32:  - x66 - x71 + x72 - x76 - x77 + x80 + x101 + x103 - x109 + x111 - x113
       - x116 - x117 + x118  = 1
 c33:  - x126 - x131 + x132 - x136 - x137 + x140 + x161 + x163 - x169 + x171
       - x173 - x176 - x177 + x178  = 0
 c34:  - x186 - x191 + x192 - x196 - x197 + x200 + x221 + x223 - x229 + x231
       - x233 - x236 - x237 + x238  = 1
 c35:  - x246 - x251 + x252 - x256 - x257 + x260 + x281 + x283 - x289 + x291
       - x293 - x296 - x297 + x298  = 0
 c36:  - x306 - x311 + x312 - x316 - x317 + x320 + x341 + x343 - x349 + x351
       - x353 - x356 - x357 + x358  = 1
 c37:  - x366 - x371 + x372 - x376 - x377 + x380 + x401 + x403 - x409 + x411
       - x413 - x416 - x417 + x418  = 0
 c38:  - x426 - x431 + x432 - x436 - x437 + x440 + x461 + x463 - x469 + x471
       - x473 - x476 - x477 + x478  = -1
 c39:  - x486 - x491 + x492 - x496 - x497 + x500 + x521 + x523 - x529 + x531
       - x533 - x536 - x537 + x538  = 0
 c40:  - x546 - x551 + x552 - x556 - x557 + x560 + x581 + x583 - x589 + x591
       - x593 - x596 - x597 + x598  = -1
 c41:  - x5 + x7 + x17 + x18 - x22 + x24 - x27 + x33 - x43 + x55 + x59  = -1
 c42:  - x65 + x67 + x77 + x78 - x82 + x84 - x87 + x93 - x103 + x115 + x119
        = 0
 c43:  - x125 + x127 + x137 + x138 - x142 + x144 - x147 + x153 - x163 + x175
       + x179  = 0
 c44:  - x185 + x187 + x197 + x198 - x202 + x204 - x207 + x213 - x223 + x235
       + x239  = 0
 c45:  - x245 + x247 + x257 + x258 - x262 + x264 - x267 + x273 - x283 + x295
       + x299  = 1
 c46:  - x305 + x307 + x317 + x318 - x322 + x324 - x327 + x333 - x343 + x355
       + x359  = 0
 c47:  - x365 + x367 + x377 + x378 - x382 + x384 - x387 + x393 - x403 + x415
       + x419  = 0
 c48:  - x425 + x427 + x437 + x438 - x442 + x444 - x447 + x453 - x463 + x475
       + x479  = 0
 c49:  - x485 + x487 + x497 + x498 - x502 + x504 - x507 + x513 - x523 + x535
       + x539  = 0
 c50:  - x545 + x547 + x557 + x558 - x562 + x564 - x567 + x573 - x583 + x595
       + x599  = 0
 c51:  - x4 - x15 + x19 + x22 + x23 - x30 - x31 + x34 + x37 + x39 - x42 + x47
       - x59  = 0
 c52:  - x64 - x75 + x79 + x82 + x83 - x90 - x91 + x94 + x97 + x99 - x102
       + x107 - x119  = 0
 c53:  - x124 - x135 + x139 + x142 + x143 - x150 - x151 + x154 + x157 + x159
       - x162 + x167 - x179  = -1
 c54:  - x184 - x195 + x199 + x202 + x203 - x210 - x211 + x214 + x217 + x219
       - x222 + x227 - x239  = 0
 c55:  - x244 - x255 + x259 + x262 + x263 - x270 - x271 + x274 + x277 + x279
       - x282 + x287 - x299  = -1
 c56:  - x304 - x315 + x319 + x322 + x323 - x330 - x331 + x334 + x337 + x339
       - x342 + x347 - x359  = 0
 c57:  - x364 - x375 + x379 + x382 + x383 - x390 - x391 + x394 + x397 + x399
       - x402 + x407 - x419  = 1
 c58:  - x424 - x435 + x439 + x442 + x443 - x450 - x451 + x454 + x457 + x459
       - x462 + x467 - x479  = 0
 c59:  - x484 - x495 + x499 + x502 + x503 - x510 - x511 + x514 + x517 + x519
       - x522 + x527 - x539  = 0
 c60:  - x544 - x555 + x559 + x562 + x563 - x570 - x571 + x574 + x577 + x579
       - x582 + x587 - x599  = 0
 c61:  x1 + x5 + x6 + x14 - x23 + x25 - x29 - x33 + x36 - x38 - x40 + x42 + x44
       + x52  = 0
 c62:  x61 + x65 + x66 + x74 - x83 + x85 - x89 - x93 + x96 - x98 - x100 + x102
       + x104 + x112  = -1
 c63:  x121 + x125 + x126 + x134 - x143 + x145 - x149 - x153 + x156 - x158
       - x160 + x162 + x164 + x172  = 0
 c64:  x181 + x185 + x186 + x194 - x203 + x205 - x209 - x213 + x216 - x218
       - x220 + x222 + x224 + x232  = 0
 c65:  x241 + x245 + x246 + x254 - x263 + x265 - x269 - x273 + x276 - x278
       - x280 + x282 + x284 + x292  = 0
 c66:  x301 + x305 + x306 + x314 - x323 + x325 - x329 - x333 + x336 - x338
       - x340 + x342 + x344 + x352  = 0
 c67:  x361 + x365 + x366 + x374 - x383 + x385 - x389 - x393 + x396 - x398
       - x400 + x402 + x404 + x412  = -1
 c68:  x421 + x425 + x426 + x434 - x443 + x445 - x449 - x453 + x456 - x458
       - x460 + x462 + x464 + x472  = 0
 c69:  x481 + x485 + x486 + x494 - x503 + x505 - x509 - x513 + x516 - x518
       - x520 + x522 + x524 + x532  = 0
 c70:  x541 + x545 + x546 + x554 - x563 + x565 - x569 - x573 + x576 - x578
       - x580 + x582 + x584 + x592  = 0
 c71:  x8 + x10 + x15 - x28 + x29 - x34 - x36 + x45 - x51 + x53 - x55 + x60
        = 0
 c72:  x68 + x70 + x75 - x88 + x89 - x94 - x96 + x105 - x111 + x113 - x115
       + x120  = 0
 c73:  x128 + x130 + x135 - x148 + x149 - x154 - x156 + x165 - x171 + x173
       - x175 + x180  = 1
 c74:  x188 + x190 + x195 - x208 + x209 - x214 - x216 + x225 - x231 + x233
       - x235 + x240  = 0
 c75:  x248 + x250 + x255 - x268 + x269 - x274 - x276 + x285 - x291 + x293
       - x295 + x300  = 0
 c76:  x308 + x310 + x315 - x328 + x329 - x334 - x336 + x345 - x351 + x353
       - x355 + x360  = -1
 c77:  x368 + x370 + x375 - x388 + x389 - x394 - x396 + x405 - x411 + x413
       - x415 + x420  = 0
 c78:  x428 + x430 + x435 - x448 + x449 - x454 - x456 + x465 - x471 + x473
       - x475 + x480  = 0
 c79:  x488 + x490 + x495 - x508 + x509 - x514 - x516 + x525 - x531 + x533
       - x535 + x540  = -1
 c80:  x548 + x550 + x555 - x568 + x569 - x574 - x576 + x585 - x591 + x593
       - x595 + x600  = 0
 c81:  x3 - x7 - x21 - x25 + x38 - x41 - x47 - x48 + x57  = 0
 c82:  x63 - x67 - x81 - x85 + x98 - x101 - x107 - x108 + x117  = 0
 c83:  x123 - x127 - x141 - x145 + x158 - x161 - x167 - x168 + x177  = 0
 c84:  x183 - x187 - x201 - x205 + x218 - x221 - x227 - x228 + x237  = 0
 c85:  x243 - x247 - x261 - x265 + x278 - x281 - x287 - x288 + x297  = 0
 c86:  x303 - x307 - x321 - x325 + x338 - x341 - x347 - x348 + x357  = 0
 c87:  x363 - x367 - x381 - x385 + x398 - x401 - x407 - x408 + x417  = 0
 c88:  x423 - x427 - x441 - x445 + x458 - x461 - x467 - x468 + x477  = 0
 c89:  x483 - x487 - x501 - x505 + x518 - x521 - x527 - x528 + x537  = 1
 c90:  x543 - x547 - x561 - x565 + x578 - x581 - x587 - x588 + x597  = 1
 c91:  - x8 + x13 - x14 - x19 + x31 - x32 + x35 + x40 - x46 - x50 + x56  = 0
 c92:  - x68 + x73 - x74 - x79 + x91 - x92 + x95 + x100 - x106 - x110 + x116
        = 0
 c93:  - x128 + x133 - x134 - x139 + x151 - x152 + x155 + x160 - x166 - x170
       + x176  = 0
 c94:  - x188 + x193 - x194 - x199 + x211 - x212 + x215 + x220 - x226 - x230
       + x236  = 0
 c95:  - x248 + x253 - x254 - x259 + x271 - x272 + x275 + x280 - x286 - x290
       + x296  = 0
 c96:  - x308 + x313 - x314 - x319 + x331 - x332 + x335 + x340 - x346 - x350
       + x356  = 0
 c97:  - x368 + x373 - x374 - x379 + x391 - x392 + x395 + x400 - x406 - x410
       + x416  = 0
 c98:  - x428 + x433 - x434 - x439 + x451 - x452 + x455 + x460 - x466 - x470
       + x476  = 1
 c99:  - x488 + x493 - x494 - x499 + x511 - x512 + x515 + x520 - x526 - x530
       + x536  = 0
 c100: - x548 + x553 - x554 - x559 + x571 - x572 + x575 + x580 - x586 - x590
       + x596  = 0
 c101: 4 x1 + 4 x61 + 4 x121 + 4 x181 + 4 x241 + 4 x301 + 4 x361 + 4 x421
       + 4 x481 + 4 x541 - 5 x601 <= 0
 c102: 4 x2 + 4 x62 + 4 x122 + 4 x182 + 4 x242 + 4 x302 + 4 x362 + 4 x422
       + 4 x482 + 4 x542 - 5 x602 <= 0
 c103: 4 x3 + 4 x63 + 4 x123 + 4 x183 + 4 x243 + 4 x303 + 4 x363 + 4 x423
       + 4 x483 + 4 x543 - 5 x603 <= 0
 c104: 4 x4 + 4 x64 + 4 x124 + 4 x184 + 4 x244 + 4 x304 + 4 x364 + 4 x424
       + 4 x484 + 4 x544 - 5 x604 <= 0
 c105: 4 x5 + 4 x65 + 4 x125 + 4 x185 + 4 x245 + 4 x305 + 4 x365 + 4 x425
       + 4 x485 + 4 x545 - 5 x605 <= 0
 c106: 4 x6 + 4 x66 + 4 x126 + 4 x186 + 4 x246 + 4 x306 + 4 x366 + 4 x426
       + 4 x486 + 4 x546 - 5 x606 <= 0
 c107: 4 x7 + 4 x67 + 4 x127 + 4 x187 + 4 x247 + 4 x307 + 4 x367 + 4 x427
       + 4 x487 + 4 x547 - 5 x607 <= 0
 c108: 4 x8 + 4 x68 + 4 x128 + 4 x188 + 4 x248 + 4 x308 + 4 x368 + 4 x428
       + 4 x488 + 4 x548 - 5 x608 <= 0
 c109: 4 x9 + 4 x69 + 4 x129 + 4 x189 + 4 x249 + 4 x309 + 4 x369 + 4 x429
       + 4 x489 + 4 x549 - 5 x609 <= 0
 c110: 4 x10 + 4 x70 + 4 x130 + 4 x190 + 4 x250 + 4 x310 + 4 x370 + 4 x430
       + 4 x490 + 4 x550 - 5 x610 <= 0
 c111: 4 x11 + 4 x71 + 4 x131 + 4 x191 + 4 x251 + 4 x311 + 4 x371 + 4 x431
       + 4 x491 + 4 x551 - 5 x611 <= 0
 c112: 4 x12 + 4 x72 + 4 x132 + 4 x192 + 4 x252 + 4 x312 + 4 x372 + 4 x432
       + 4 x492 + 4 x552 - 5 x612 <= 0
 c113: 4 x13 + 4 x73 + 4 x133 + 4 x193 + 4 x253 + 4 x313 + 4 x373 + 4 x433
       + 4 x493 + 4 x553 - 5 x613 <= 0
 c114: 4 x14 + 4 x74 + 4 x134 + 4 x194 + 4 x254 + 4 x314 + 4 x374 + 4 x434
       + 4 x494 + 4 x554 - 5 x614 <= 0
 c115: 4 x15 + 4 x75 + 4 x135 + 4 x195 + 4 x255 + 4 x315 + 4 x375 + 4 x435
       + 4 x495 + 4 x555 - 5 x615 <= 0
 c116: 4 x16 + 4 x76 + 4 x136 + 4 x196 + 4 x256 + 4 x316 + 4 x376 + 4 x436
       + 4 x496 + 4 x556 - 5 x616 <= 0
 c117: 4 x17 + 4 x77 + 4 x137 + 4 x197 + 4 x257 + 4 x317 + 4 x377 + 4 x437
       + 4 x497 + 4 x557 - 5 x617 <= 0
 c118: 4 x18 + 4 x78 + 4 x138 + 4 x198 + 4 x258 + 4 x318 + 4 x378 + 4 x438
       + 4 x498 + 4 x558 - 5 x618 <= 0
 c119: 4 x19 + 4 x79 + 4 x139 + 4 x199 + 4 x259 + 4 x319 + 4 x379 + 4 x439
       + 4 x499 + 4 x559 - 5 x619 <= 0
 c120: 4 x20 + 4 x80 + 4 x140 + 4 x200 + 4 x260 + 4 x320 + 4 x380 + 4 x440
       + 4 x500 + 4 x560 - 5 x620 <= 0
 c121: 4 x21 + 4 x81 + 4 x141 + 4 x201 + 4 x261 + 4 x321 + 4 x381 + 4 x441
       + 4 x501 + 4 x561 - 5 x621 <= 0
 c122: 4 x22 + 4 x82 + 4 x142 + 4 x202 + 4 x262 + 4 x322 + 4 x382 + 4 x442
       + 4 x502 + 4 x562 - 5 x622 <= 0
 c123: 4 x23 + 4 x83 + 4 x143 + 4 x203 + 4 x263 + 4 x323 + 4 x383 + 4 x443
       + 4 x503 + 4 x563 - 5 x623 <= 0
 c124: 4 x24 + 4 x84 + 4 x144 + 4 x204 + 4 x264 + 4 x324 + 4 x384 + 4 x444
       + 4 x504 + 4 x564 - 5 x624 <= 0
 c125: 4 x25 + 4 x85 + 4 x145 + 4 x205 + 4 x265 + 4 x325 + 4 x385 + 4 x445
       + 4 x505 + 4 x565 - 5 x625 <= 0
 c126: 4 x26 + 4 x86 + 4 x146 + 4 x206 + 4 x266 + 4 x326 + 4 x386 + 4 x446
       + 4 x506 + 4 x566 - 5 x626 <= 0
 c127: 4 x27 + 4 x87 + 4 x147 + 4 x207 + 4 x267 + 4 x327 + 4 x387 + 4 x447
       + 4 x507 + 4 x567 - 5 x627 <= 0
 c128: 4 x28 + 4 x88 + 4 x148 + 4 x208 + 4 x268 + 4 x328 + 4 x388 + 4 x448
       + 4 x508 + 4 x568 - 5 x628 <= 0
 c129: 4 x29 + 4 x89 + 4 x149 + 4 x209 + 4 x269 + 4 x329 + 4 x389 + 4 x449
       + 4 x509 + 4 x569 - 5 x629 <= 0
 c130: 4 x30 + 4 x90 + 4 x150 + 4 x210 + 4 x270 + 4 x330 + 4 x390 + 4 x450
       + 4 x510 + 4 x570 - 5 x630 <= 0
 c131: 4 x31 + 4 x91 + 4 x151 + 4 x211 + 4 x271 + 4 x331 + 4 x391 + 4 x451
       + 4 x511 + 4 x571 - 5 x631 <= 0
 c132: 4 x32 + 4 x92 + 4 x152 + 4 x212 + 4 x272 + 4 x332 + 4 x392 + 4 x452
       + 4 x512 + 4 x572 - 5 x632 <= 0
 c133: 4 x33 + 4 x93 + 4 x153 + 4 x213 + 4 x273 + 4 x333 + 4 x393 + 4 x453
       + 4 x513 + 4 x573 - 5 x633 <= 0
 c134: 4 x34 + 4 x94 + 4 x154 + 4 x214 + 4 x274 + 4 x334 + 4 x394 + 4 x454
       + 4 x514 + 4 x574 - 5 x634 <= 0
 c135: 4 x35 + 4 x95 + 4 x155 + 4 x215 + 4 x275 + 4 x335 + 4 x395 + 4 x455
       + 4 x515 + 4 x575 - 5 x635 <= 0
 c136: 4 x36 + 4 x96 + 4 x156 + 4 x216 + 4 x276 + 4 x336 + 4 x396 + 4 x456
       + 4 x516 + 4 x576 - 5 x636 <= 0
 c137: 4 x37 + 4 x97 + 4 x157 + 4 x217 + 4 x277 + 4 x337 + 4 x397 + 4 x457
       + 4 x517 + 4 x577 - 5 x637 <= 0
 c138: 4 x38 + 4 x98 + 4 x158 + 4 x218 + 4 x278 + 4 x338 + 4 x398 + 4 x458
       + 4 x518 + 4 x578 - 5 x638 <= 0
 c139: 4 x39 + 4 x99 + 4 x159 + 4 x219 + 4 x279 + 4 x339 + 4 x399 + 4 x459
       + 4 x519 + 4 x579 - 5 x639 <= 0
 c140: 4 x40 + 4 x100 + 4 x160 + 4 x220 + 4 x280 + 4 x340 + 4 x400 + 4 x460
       + 4 x520 + 4 x580 - 5 x640 <= 0
 c141: 4 x41 + 4 x101 + 4 x161 + 4 x221 + 4 x281 + 4 x341 + 4 x401 + 4 x461
       + 4 x521 + 4 x581 - 5 x641 <= 0
 c142: 4 x42 + 4 x102 + 4 x162 + 4 x222 + 4 x282 + 4 x342 + 4 x402 + 4 x462
       + 4 x522 + 4 x582 - 5 x642 <= 0
 c143: 4 x43 + 4 x103 + 4 x163 + 4 x223 + 4 x283 + 4 x343 + 4 x403 + 4 x463
       + 4 x523 + 4 x583 - 5 x643 <= 0
 c144: 4 x44 + 4 x104 + 4 x164 + 4 x224 + 4 x284 + 4 x344 + 4 x404 + 4 x464
       + 4 x524 + 4 x584 - 5 x644 <= 0
 c145: 4 x45 + 4 x105 + 4 x165 + 4 x225 + 4 x285 + 4 x345 + 4 x405 + 4 x465
       + 4 x525 + 4 x585 - 5 x645 <= 0
 c146: 4 x46 + 4 x106 + 4 x166 + 4 x226 + 4 x286 + 4 x346 + 4 x406 + 4 x466
       + 4 x526 + 4 x586 - 5 x646 <= 0
 c147: 4 x47 + 4 x107 + 4 x167 + 4 x227 + 4 x287 + 4 x347 + 4 x407 + 4 x467
       + 4 x527 + 4 x587 - 5 x647 <= 0
 c148: 4 x48 + 4 x108 + 4 x168 + 4 x228 + 4 x288 + 4 x348 + 4 x408 + 4 x468
       + 4 x528 + 4 x588 - 5 x648 <= 0
 c149: 4 x49 + 4 x109 + 4 x169 + 4 x229 + 4 x289 + 4 x349 + 4 x409 + 4 x469
       + 4 x529 + 4 x589 - 5 x649 <= 0
 c150: 4 x50 + 4 x110 + 4 x170 + 4 x230 + 4 x290 + 4 x350 + 4 x410 + 4 x470
       + 4 x530 + 4 x590 - 5 x650 <= 0
 c151: 4 x51 + 4 x111 + 4 x171 + 4 x231 + 4 x291 + 4 x351 + 4 x411 + 4 x471
       + 4 x531 + 4 x591 - 5 x651 <= 0
 c152: 4 x52 + 4 x112 + 4 x172 + 4 x232 + 4 x292 + 4 x352 + 4 x412 + 4 x472
       + 4 x532 + 4 x592 - 5 x652 <= 0
 c153: 4 x53 + 4 x113 + 4 x173 + 4 x233 + 4 x293 + 4 x353 + 4 x413 + 4 x473
       + 4 x533 + 4 x593 - 5 x653 <= 0
 c154: 4 x54 + 4 x114 + 4 x174 + 4 x234 + 4 x294 + 4 x354 + 4 x414 + 4 x474
       + 4 x534 + 4 x594 - 5 x654 <= 0
 c155: 4 x55 + 4 x115 + 4 x175 + 4 x235 + 4 x295 + 4 x355 + 4 x415 + 4 x475
       + 4 x535 + 4 x595 - 5 x655 <= 0
 c156: 4 x56 + 4 x116 + 4 x176 + 4 x236 + 4 x296 + 4 x356 + 4 x416 + 4 x476
       + 4 x536 + 4 x596 - 5 x656 <= 0
 c157: 4 x57 + 4 x117 + 4 x177 + 4 x237 + 4 x297 + 4 x357 + 4 x417 + 4 x477
       + 4 x537 + 4 x597 - 5 x657 <= 0
 c158: 4 x58 + 4 x118 + 4 x178 + 4 x238 + 4 x298 + 4 x358 + 4 x418 + 4 x478
       + 4 x538 + 4 x598 - 5 x658 <= 0
 c159: 4 x59 + 4 x119 + 4 x179 + 4 x239 + 4 x299 + 4 x359 + 4 x419 + 4 x479
       + 4 x539 + 4 x599 - 5 x659 <= 0
 c160: 4 x60 + 4 x120 + 4 x180 + 4 x240 + 4 x300 + 4 x360 + 4 x420 + 4 x480
       + 4 x540 + 4 x600 - 5 x660 <= 0
Bounds
 0 <= x1 <= 1
 0 <= x2 <= 1
 0 <= x3 <= 1
 0 <= x4 <= 1
 0 <= x5 <= 1
 0 <= x6 <= 1
 0 <= x7 <= 1
 0 <= x8 <= 1
 0 <= x9 <= 1
 0 <= x10 <= 1
 0 <= x11 <= 1
 0 <= x12 <= 1
 0 <= x13 <= 1
 0 <= x14 <= 1
 0 <= x15 <= 1
 0 <= x16 <= 1
 0 <= x17 <= 1
 0 <= x18 <= 1
 0 <= x19 <= 1
 0 <= x20 <= 1
 0 <= x21 <= 1
 0 <= x22 <= 1
 0 <= x23 <= 1
 0 <= x24 <= 1
 0 <= x25 <= 1
 0 <= x26 <= 1
 0 <= x27 <= 1
 0 <= x28 <= 1
 0 <= x29 <= 1
 0 <= x30 <= 1
 0 <= x31 <= 1
 0 <= x32 <= 1
 0 <= x33 <= 1
 0 <= x34 <= 1
 0 <= x35 <= 1
 0 <= x36 <= 1
 0 <= x37 <= 1
 0 <= x38 <= 1
 0 <= x39 <= 1
 0 <= x40 <= 1
 0 <= x41 <= 1
 0 <= x42 <= 1
 0 <= x43 <= 1
 0 <= x44 <= 1
 0 <= x45 <= 1
 0 <= x46 <= 1
 0 <= x47 <= 1
 0 <= x48 <= 1
 0 <= x49 <= 1
 0 <= x50 <= 1
 0 <= x51 <= 1
 0 <= x52 <= 1
 0 <= x53 <= 1
 0 <= x54 <= 1
 0 <= x55 <= 1
 0 <= x56 <= 1
 0 <= x57 <= 1
 0 <= x58 <= 1
 0 <= x59 <= 1
 0 <= x60 <= 1
 0 <= x61 <= 1
 0 <= x62 <= 1
 0 <= x63 <= 1
 0 <= x64 <= 1
 0 <= x65 <= 1
 0 <= x66 <= 1
 0 <= x67 <= 1
 0 <= x68 <= 1
 0 <= x69 <= 1
 0 <= x70 <= 1
 0 <= x71 <= 1
 0 <= x72 <= 1
 0 <= x73 <= 1
 0 <= x74 <= 1
 0 <= x75 <= 1
 0 <= x76 <= 1
 0 <= x77 <= 1
 0 <= x78 <= 1
 0 <= x79 <= 1
 0 <= x80 <= 1
 0 <= x81 <= 1
 0 <= x82 <= 1
 0 <= x83 <= 1
 0 <= x84 <= 1
 0 <= x85 <= 1
 0 <= x86 <= 1
 0 <= x87 <= 1
 0 <= x88 <= 1
 0 <= x89 <= 1
 0 <= x90 <= 1
 0 <= x91 <= 1
 0 <= x92 <= 1
 0 <= x93 <= 1
 0 <= x94 <= 1
 0 <= x95 <= 1
 0 <= x96 <= 1
 0 <= x97 <= 1
 0 <= x98 <= 1
 0 <= x99 <= 1
 0 <= x100 <= 1
 0 <= x101 <= 1
 0 <= x102 <= 1
 0 <= x103 <= 1
 0 <= x104 <= 1
 0 <= x105 <= 1
 0 <= x106 <= 1
 0 <= x107 <= 1
 0 <= x108 <= 1
 0 <= x109 <= 1
 0 <= x110 <= 1
 0 <= x111 <= 1
 0 <= x112 <= 1
 0 <= x113 <= 1
 0 <= x114 <= 1
 0 <= x115 <= 1
 0 <= x116 <= 1
 0 <= x117 <= 1
 0 <= x118 <= 1
 0 <= x119 <= 1
 0 <= x120 <= 1
 0 <= x121 <= 1
 0 <= x122 <= 1
 0 <= x123 <= 1
 0 <= x124 <= 1
 0 <= x125 <= 1
 0 <= x126 <= 1
 0 <= x127 <= 1
 0 <= x128 <= 1
 0 <= x129 <= 1
 0 <= x130 <= 1
 0 <= x131 <= 1
 0 <= x132 <= 1
 0 <= x133 <= 1
 0 <= x134 <= 1
 0 <= x135 <= 1
 0 <= x136 <= 1
 0 <= x137 <= 1
 0 <= x138 <= 1
 0 <= x139 <= 1
 0 <= x140 <= 1
 0 <= x141 <= 1
 0 <= x142 <= 1
 0 <= x143 <= 1
 0 <= x144 <= 1
 0 <= x145 <= 1
 0 <= x146 <= 1
 0 <= x147 <= 1
 0 <= x148 <= 1
 0 <= x149 <= 1
 0 <= x150 <= 1
 0 <= x151 <= 1
 0 <= x152 <= 1
 0 <= x153 <= 1
 0 <= x154 <= 1
 0 <= x155 <= 1
 0 <= x156 <= 1
 0 <= x157 <= 1
 0 <= x158 <= 1
 0 <= x159 <= 1
 0 <= x160 <= 1
 0 <= x161 <= 1
 0 <= x162 <= 1
 0 <= x163 <= 1
 0 <= x164 <= 1
 0 <= x165 <= 1
 0 <= x166 <= 1
 0 <= x167 <= 1
 0 <= x168 <= 1
 0 <= x169 <= 1
 0 <= x170 <= 1
 0 <= x171 <= 1
 0 <= x172 <= 1
 0 <= x173 <= 1
 0 <= x174 <= 1
 0 <= x175 <= 1
 0 <= x176 <= 1
 0 <= x177 <= 1
 0 <= x178 <= 1
 0 <= x179 <= 1
 0 <= x180 <= 1
 0 <= x181 <= 1
 0 <= x182 <= 1
 0 <= x183 <= 1
 0 <= x184 <= 1
 0 <= x185 <= 1
 0 <= x186 <= 1
 0 <= x187 <= 1
 0 <= x188 <= 1
 0 <= x189 <= 1
 0 <= x190 <= 1
 0 <= x191 <= 1
 0 <= x192 <= 1
 0 <= x193 <= 1
 0 <= x194 <= 1
 0 <= x195 <= 1
 0 <= x196 <= 1
 0 <= x197 <= 1
 0 <= x198 <= 1
 0 <= x199 <= 1
 0 <= x200 <= 1
 0 <= x201 <= 1
 0 <= x202 <= 1
 0 <= x203 <= 1
 0 <= x204 <= 1
 0 <= x205 <= 1
 0 <= x206 <= 1
 0 <= x207 <= 1
 0 <= x208 <= 1
 0 <= x209 <= 1
 0 <= x210 <= 1
 0 <= x211 <= 1
 0 <= x212 <= 1
 0 <= x213 <= 1
 0 <= x214 <= 1
 0 <= x215 <= 1
 0 <= x216 <= 1
 0 <= x217 <= 1
 0 <= x218 <= 1
 0 <= x219 <= 1
 0 <= x220 <= 1
 0 <= x221 <= 1
 0 <= x222 <= 1
 0 <= x223 <= 1
 0 <= x224 <= 1
 0 <= x225 <= 1
 0 <= x226 <= 1
 0 <= x227 <= 1
 0 <= x228 <= 1
 0 <= x229 <= 1
 0 <= x230 <= 1
 0 <= x231 <= 1
 0 <= x232 <= 1
 0 <= x233 <= 1
 0 <= x234 <= 1
 0 <= x235 <= 1
 0 <= x236 <= 1
 0 <= x237 <= 1
 0 <= x238 <= 1
 0 <= x239 <= 1
 0 <= x240 <= 1
 0 <= x241 <= 1
 0 <= x242 <= 1
 0 <= x243 <= 1
 0 <= x244 <= 1
 0 <= x245 <= 1
 0 <= x246 <= 1
 0 <= x247 <= 1
 0 <= x248 <= 1
 0 <= x249 <= 1
 0 <= x250 <= 1
 0 <= x251 <= 1
 0 <= x252 <= 1
 0 <= x253 <= 1
 0 <= x254 <= 1
 0 <= x255 <= 1
 0 <= x256 <= 1
 0 <= x257 <= 1
 0 <= x258 <= 1
 0 <= x259 <= 1
 0 <= x260 <= 1
 0 <= x261 <= 1
 0 <= x262 <= 1
 0 <= x263 <= 1
 0 <= x264 <= 1
 0 <= x265 <= 1
 0 <= x266 <= 1
 0 <= x267 <= 1
 0 <= x268 <= 1
 0 <= x269 <= 1
 0 <= x270 <= 1
 0 <= x271 <= 1
 0 <= x272 <= 1
 0 <= x273 <= 1
 0 <= x274 <= 1
 0 <= x275 <= 1
 0 <= x276 <= 1
 0 <= x277 <= 1
 0 <= x278 <= 1
 0 <= x279 <= 1
 0 <= x280 <= 1
 0 <= x281 <= 1
 0 <= x282 <= 1
 0 <= x283 <= 1
 0 <= x284 <= 1
 0 <= x285 <= 1
 0 <= x286 <= 1
 0 <= x287 <= 1
 0 <= x288 <= 1
 0 <= x289 <= 1
 0 <= x290 <= 1
 0 <= x291 <= 1
 0 <= x292 <= 1
 0 <= x293 <= 1
 0 <= x294 <= 1
 0 <= x295 <= 1
 0 <= x296 <= 1
 0 <= x297 <= 1
 0 <= x298 <= 1
 0 <= x299 <= 1
 0 <= x300 <= 1
 0 <= x301 <= 1
 0 <= x302 <= 1
 0 <= x303 <= 1
 0 <= x304 <= 1
 0 <= x305 <= 1
 0 <= x306 <= 1
 0 <= x307 <= 1
 0 <= x308 <= 1
 0 <= x309 <= 1
 0 <= x310 <= 1
 0 <= x311 <= 1
 0 <= x312 <= 1
 0 <= x313 <= 1
 0 <= x314 <= 1
 0 <= x315 <= 1
 0 <= x316 <= 1
 0 <= x317 <= 1
 0 <= x318 <= 1
 0 <= x319 <= 1
 0 <= x320 <= 1
 0 <= x321 <= 1
 0 <= x322 <= 1
 0 <= x323 <= 1
 0 <= x324 <= 1
 0 <= x325 <= 1
 0 <= x326 <= 1
 0 <= x327 <= 1
 0 <= x328 <= 1
 0 <= x329 <= 1
 0 <= x330 <= 1
 0 <= x331 <= 1
 0 <= x332 <= 1
 0 <= x333 <= 1
 0 <= x334 <= 1
 0 <= x335 <= 1
 0 <= x336 <= 1
 0 <= x337 <= 1
 0 <= x338 <= 1
 0 <= x339 <= 1
 0 <= x340 <= 1
 0 <= x341 <= 1
 0 <= x342 <= 1
 0 <= x343 <= 1
 0 <= x344 <= 1
 0 <= x345 <= 1
 0 <= x346 <= 1
 0 <= x347 <= 1
 0 <= x348 <= 1
 0 <= x349 <= 1
 0 <= x350 <= 1
 0 <= x351 <= 1
 0 <= x352 <= 1
 0 <= x353 <= 1
 0 <= x354 <= 1
 0 <= x355 <= 1
 0 <= x356 <= 1
 0 <= x357 <= 1
 0 <= x358 <= 1
 0 <= x359 <= 1
 0 <= x360 <= 1
 0 <= x361 <= 1
 0 <= x362 <= 1
 0 <= x363 <= 1
 0 <= x364 <= 1
 0 <= x365 <= 1
 0 <= x366 <= 1
 0 <= x367 <= 1
 0 <= x368 <= 1
 0 <= x369 <= 1
 0 <= x370 <= 1
 0 <= x371 <= 1
 0 <= x372 <= 1
 0 <= x373 <= 1
 0 <= x374 <= 1
 0 <= x375 <= 1
 0 <= x376 <= 1
 0 <= x377 <= 1
 0 <= x378 <= 1
 0 <= x379 <= 1
 0 <= x380 <= 1
 0 <= x381 <= 1
 0 <= x382 <= 1
 0 <= x383 <= 1
 0 <= x384 <= 1
 0 <= x385 <= 1
 0 <= x386 <= 1
 0 <= x387 <= 1
 0 <= x388 <= 1
 0 <= x389 <= 1
 0 <= x390 <= 1
 0 <= x391 <= 1
 0 <= x392 <= 1
 0 <= x393 <= 1
 0 <= x394 <= 1
 0 <= x395 <= 1
 0 <= x396 <= 1
 0 <= x397 <= 1
 0 <= x398 <= 1
 0 <= x399 <= 1
 0 <= x400 <= 1
 0 <= x401 <= 1
 0 <= x402 <= 1
 0 <= x403 <= 1
 0 <= x404 <= 1
 0 <= x405 <= 1
 0 <= x406 <= 1
 0 <= x407 <= 1
 0 <= x408 <= 1
 0 <= x409 <= 1
 0 <= x410 <= 1
 0 <= x411 <= 1
 0 <= x412 <= 1
 0 <= x413 <= 1
 0 <= x414 <= 1
 0 <= x415 <= 1
 0 <= x416 <= 1
 0 <= x417 <= 1
 0 <= x418 <= 1
 0 <= x419 <= 1
 0 <= x420 <= 1
 0 <= x421 <= 1
 0 <= x422 <= 1
 0 <= x423 <= 1
 0 <= x424 <= 1
 0 <= x425 <= 1
 0 <= x426 <= 1
 0 <= x427 <= 1
 0 <= x428 <= 1
 0 <= x429 <= 1
 0 <= x430 <= 1
 0 <= x431 <= 1
 0 <= x432 <= 1
 0 <= x433 <= 1
 0 <= x434 <= 1
 0 <= x435 <= 1
 0 <= x436 <= 1
 0 <= x437 <= 1
 0 <= x438 <= 1
 0 <= x439 <= 1
 0 <= x440 <= 1
 0 <= x441 <= 1
 0 <= x442 <= 1
 0 <= x443 <= 1
 0 <= x444 <= 1
 0 <= x445 <= 1
 0 <= x446 <= 1
 0 <= x447 <= 1
 0 <= x448 <= 1
 0 <= x449 <= 1
 0 <= x450 <= 1
 0 <= x451 <= 1
 0 <= x452 <= 1
 0 <= x453 <= 1
 0 <= x454 <= 1
 0 <= x455 <= 1
 0 <= x456 <= 1
 0 <= x457 <= 1
 0 <= x458 <= 1
 0 <= x459 <= 1
 0 <= x460 <= 1
 0 <= x461 <= 1
 0 <= x462 <= 1
 0 <= x463 <= 1
 0 <= x464 <= 1
 0 <= x465 <= 1
 0 <= x466 <= 1
 0 <= x467 <= 1
 0 <= x468 <= 1
 0 <= x469 <= 1
 0 <= x470 <= 1
 0 <= x471 <= 1
 0 <= x472 <= 1
 0 <= x473 <= 1
 0 <= x474 <= 1
 0 <= x475 <= 1
 0 <= x476 <= 1
 0 <= x477 <= 1
 0 <= x478 <= 1
 0 <= x479 <= 1
 0 <= x480 <= 1
 0 <= x481 <= 1
 0 <= x482 <= 1
 0 <= x483 <= 1
 0 <= x484 <= 1
 0 <= x485 <= 1
 0 <= x486 <= 1
 0 <= x487 <= 1
 0 <= x488 <= 1
 0 <= x489 <= 1
 0 <= x490 <= 1
 0 <= x491 <= 1
 0 <= x492 <= 1
 0 <= x493 <= 1
 0 <= x494 <= 1
 0 <= x495 <= 1
 0 <= x496 <= 1
 0 <= x497 <= 1
 0 <= x498 <= 1
 0 <= x499 <= 1
 0 <= x500 <= 1
 0 <= x501 <= 1
 0 <= x502 <= 1
 0 <= x503 <= 1
 0 <= x504 <= 1
 0 <= x505 <= 1
 0 <= x506 <= 1
 0 <= x507 <= 1
 0 <= x508 <= 1
 0 <= x509 <= 1
 0 <= x510 <= 1
 0 <= x511 <= 1
 0 <= x512 <= 1
 0 <= x513 <= 1
 0 <= x514 <= 1
 0 <= x515 <= 1
 0 <= x516 <= 1
 0 <= x517 <= 1
 0 <= x518 <= 1
 0 <= x519 <= 1
 0 <= x520 <= 1
 0 <= x521 <= 1
 0 <= x522 <= 1
 0 <= x523 <= 1
 0 <= x524 <= 1
 0 <= x525 <= 1
 0 <= x526 <= 1
 0 <= x527 <= 1
 0 <= x528 <= 1
 0 <= x529 <= 1
 0 <= x530 <= 1
 0 <= x531 <= 1
 0 <= x532 <= 1
 0 <= x533 <= 1
 0 <= x534 <= 1
 0 <= x535 <= 1
 0 <= x536 <= 1
 0 <= x537 <= 1
 0 <= x538 <= 1
 0 <= x539 <= 1
 0 <= x540 <= 1
 0 <= x541 <= 1
 0 <= x542 <= 1
 0 <= x543 <= 1
 0 <= x544 <= 1
 0 <= x545 <= 1
 0 <= x546 <= 1
 0 <= x547 <= 1
 0 <= x548 <= 1
 0 <= x549 <= 1
 0 <= x550 <= 1
 0 <= x551 <= 1
 0 <= x552 <= 1
 0 <= x553 <= 1
 0 <= x554 <= 1
 0 <= x555 <= 1
 0 <= x556 <= 1
 0 <= x557 <= 1
 0 <= x558 <= 1
 0 <= x559 <= 1
 0 <= x560 <= 1
 0 <= x561 <= 1
 0 <= x562 <= 1
 0 <= x563 <= 1
 0 <= x564 <= 1
 0 <= x565 <= 1
 0 <= x566 <= 1
 0 <= x567 <= 1
 0 <= x568 <= 1
 0 <= x569 <= 1
 0 <= x570 <= 1
 0 <= x571 <= 1
 0 <= x572 <= 1
 0 <= x573 <= 1
 0 <= x574 <= 1
 0 <= x575 <= 1
 0 <= x576 <= 1
 0 <= x577 <= 1
 0 <= x578 <= 1
 0 <= x579 <= 1
 0 <= x580 <= 1
 0 <= x581 <= 1
 0 <= x582 <= 1
 0 <= x583 <= 1
 0 <= x584 <= 1
 0 <= x585 <= 1
 0 <= x586 <= 1
 0 <= x587 <= 1
 0 <= x588 <= 1
 0 <= x589 <= 1
 0 <= x590 <= 1
 0 <= x591 <= 1
 0 <= x592 <= 1
 0 <= x593 <= 1
 0 <= x594 <= 1
 0 <= x595 <= 1
 0 <= x596 <= 1
 0 <= x597 <= 1
 0 <= x598 <= 1
 0 <= x599 <= 1
 0 <= x600 <= 1
 0 <= x601 <= 1
 0 <= x602 <= 1
 0 <= x603 <= 1
 0 <= x604 <= 1
 0 <= x605 <= 1
 0 <= x606 <= 1
 0 <= x607 <= 1
 0 <= x608 <= 1
 0 <= x609 <= 1
 0 <= x610 <= 1
 0 <= x611 <= 1
 0 <= x612 <= 1
 0 <= x613 <= 1
 0 <= x614 <= 1
 0 <= x615 <= 1
 0 <= x616 <= 1
 0 <= x617 <= 1
 0 <= x618 <= 1
 0 <= x619 <= 1
 0 <= x620 <= 1
 0 <= x621 <= 1
 0 <= x622 <= 1
 0 <= x623 <= 1
 0 <= x624 <= 1
 0 <= x625 <= 1
 0 <= x626 <= 1
 0 <= x627 <= 1
 0 <= x628 <= 1
 0 <= x629 <= 1
 0 <= x630 <= 1
 0 <= x631 <= 1
 0 <= x632 <= 1
 0 <= x633 <= 1
 0 <= x634 <= 1
 0 <= x635 <= 1
 0 <= x636 <= 1
 0 <= x637 <= 1
 0 <= x638 <= 1
 0 <= x639 <= 1
 0 <= x640 <= 1
 0 <= x641 <= 1
 0 <= x642 <= 1
 0 <= x643 <= 1
 0 <= x644 <= 1
 0 <= x645 <= 1
 0 <= x646 <= 1
 0 <= x647 <= 1
 0 <= x648 <= 1
 0 <= x649 <= 1
 0 <= x650 <= 1
 0 <= x651 <= 1
 0 <= x652 <= 1
 0 <= x653 <= 1
 0 <= x654 <= 1
 0 <= x655 <= 1
 0 <= x656 <= 1
 0 <= x657 <= 1
 0 <= x658 <= 1
 0 <= x659 <= 1
 0 <= x660 <= 1
Binaries
 x601  x602  x603  x604  x605  x606  x607  x608  x609  x610  x611  x612  x613 
 x614  x615  x616  x617  x618  x619  x620  x621  x622  x623  x624  x625  x626 
 x627  x628  x629  x630  x631  x632  x633  x634  x635  x636  x637  x638  x639 
 x640  x641  x642  x643  x644  x645  x646  x647  x648  x649  x650  x651  x652 
 x653  x654  x655  x656  x657  x658  x659  x660 
End
